c *********************************
c * Circuit generated by BenCGen
c *
c * Parity_415
c *
c * Ports with 1 gate(s): 1
c * Ports with 2 gate(s): 415
c * Total gates: 416
c *********************************
p cnf 831 1661
1 418 0
-1 -418 0
1 -417 0
418 -417 0
-1 -418 417 0
1 2 -419 0
-1 2 419 0
1 -2 419 0
-1 -2 -419 0
3 4 -420 0
-3 4 420 0
3 -4 420 0
-3 -4 -420 0
5 6 -421 0
-5 6 421 0
5 -6 421 0
-5 -6 -421 0
7 8 -422 0
-7 8 422 0
7 -8 422 0
-7 -8 -422 0
9 10 -423 0
-9 10 423 0
9 -10 423 0
-9 -10 -423 0
11 12 -424 0
-11 12 424 0
11 -12 424 0
-11 -12 -424 0
13 14 -425 0
-13 14 425 0
13 -14 425 0
-13 -14 -425 0
15 16 -426 0
-15 16 426 0
15 -16 426 0
-15 -16 -426 0
17 18 -427 0
-17 18 427 0
17 -18 427 0
-17 -18 -427 0
19 20 -428 0
-19 20 428 0
19 -20 428 0
-19 -20 -428 0
21 22 -429 0
-21 22 429 0
21 -22 429 0
-21 -22 -429 0
23 24 -430 0
-23 24 430 0
23 -24 430 0
-23 -24 -430 0
25 26 -431 0
-25 26 431 0
25 -26 431 0
-25 -26 -431 0
27 28 -432 0
-27 28 432 0
27 -28 432 0
-27 -28 -432 0
29 30 -433 0
-29 30 433 0
29 -30 433 0
-29 -30 -433 0
31 32 -434 0
-31 32 434 0
31 -32 434 0
-31 -32 -434 0
33 34 -435 0
-33 34 435 0
33 -34 435 0
-33 -34 -435 0
35 36 -436 0
-35 36 436 0
35 -36 436 0
-35 -36 -436 0
37 38 -437 0
-37 38 437 0
37 -38 437 0
-37 -38 -437 0
39 40 -438 0
-39 40 438 0
39 -40 438 0
-39 -40 -438 0
41 42 -439 0
-41 42 439 0
41 -42 439 0
-41 -42 -439 0
43 44 -440 0
-43 44 440 0
43 -44 440 0
-43 -44 -440 0
45 46 -441 0
-45 46 441 0
45 -46 441 0
-45 -46 -441 0
47 48 -442 0
-47 48 442 0
47 -48 442 0
-47 -48 -442 0
49 50 -443 0
-49 50 443 0
49 -50 443 0
-49 -50 -443 0
51 52 -444 0
-51 52 444 0
51 -52 444 0
-51 -52 -444 0
53 54 -445 0
-53 54 445 0
53 -54 445 0
-53 -54 -445 0
55 56 -446 0
-55 56 446 0
55 -56 446 0
-55 -56 -446 0
57 58 -447 0
-57 58 447 0
57 -58 447 0
-57 -58 -447 0
59 60 -448 0
-59 60 448 0
59 -60 448 0
-59 -60 -448 0
61 62 -449 0
-61 62 449 0
61 -62 449 0
-61 -62 -449 0
63 64 -450 0
-63 64 450 0
63 -64 450 0
-63 -64 -450 0
65 66 -451 0
-65 66 451 0
65 -66 451 0
-65 -66 -451 0
67 68 -452 0
-67 68 452 0
67 -68 452 0
-67 -68 -452 0
69 70 -453 0
-69 70 453 0
69 -70 453 0
-69 -70 -453 0
71 72 -454 0
-71 72 454 0
71 -72 454 0
-71 -72 -454 0
73 74 -455 0
-73 74 455 0
73 -74 455 0
-73 -74 -455 0
75 76 -456 0
-75 76 456 0
75 -76 456 0
-75 -76 -456 0
77 78 -457 0
-77 78 457 0
77 -78 457 0
-77 -78 -457 0
79 80 -458 0
-79 80 458 0
79 -80 458 0
-79 -80 -458 0
81 82 -459 0
-81 82 459 0
81 -82 459 0
-81 -82 -459 0
83 84 -460 0
-83 84 460 0
83 -84 460 0
-83 -84 -460 0
85 86 -461 0
-85 86 461 0
85 -86 461 0
-85 -86 -461 0
87 88 -462 0
-87 88 462 0
87 -88 462 0
-87 -88 -462 0
89 90 -463 0
-89 90 463 0
89 -90 463 0
-89 -90 -463 0
91 92 -464 0
-91 92 464 0
91 -92 464 0
-91 -92 -464 0
93 94 -465 0
-93 94 465 0
93 -94 465 0
-93 -94 -465 0
95 96 -466 0
-95 96 466 0
95 -96 466 0
-95 -96 -466 0
97 98 -467 0
-97 98 467 0
97 -98 467 0
-97 -98 -467 0
99 100 -468 0
-99 100 468 0
99 -100 468 0
-99 -100 -468 0
101 102 -469 0
-101 102 469 0
101 -102 469 0
-101 -102 -469 0
103 104 -470 0
-103 104 470 0
103 -104 470 0
-103 -104 -470 0
105 106 -471 0
-105 106 471 0
105 -106 471 0
-105 -106 -471 0
107 108 -472 0
-107 108 472 0
107 -108 472 0
-107 -108 -472 0
109 110 -473 0
-109 110 473 0
109 -110 473 0
-109 -110 -473 0
111 112 -474 0
-111 112 474 0
111 -112 474 0
-111 -112 -474 0
113 114 -475 0
-113 114 475 0
113 -114 475 0
-113 -114 -475 0
115 116 -476 0
-115 116 476 0
115 -116 476 0
-115 -116 -476 0
117 118 -477 0
-117 118 477 0
117 -118 477 0
-117 -118 -477 0
119 120 -478 0
-119 120 478 0
119 -120 478 0
-119 -120 -478 0
121 122 -479 0
-121 122 479 0
121 -122 479 0
-121 -122 -479 0
123 124 -480 0
-123 124 480 0
123 -124 480 0
-123 -124 -480 0
125 126 -481 0
-125 126 481 0
125 -126 481 0
-125 -126 -481 0
127 128 -482 0
-127 128 482 0
127 -128 482 0
-127 -128 -482 0
129 130 -483 0
-129 130 483 0
129 -130 483 0
-129 -130 -483 0
131 132 -484 0
-131 132 484 0
131 -132 484 0
-131 -132 -484 0
133 134 -485 0
-133 134 485 0
133 -134 485 0
-133 -134 -485 0
135 136 -486 0
-135 136 486 0
135 -136 486 0
-135 -136 -486 0
137 138 -487 0
-137 138 487 0
137 -138 487 0
-137 -138 -487 0
139 140 -488 0
-139 140 488 0
139 -140 488 0
-139 -140 -488 0
141 142 -489 0
-141 142 489 0
141 -142 489 0
-141 -142 -489 0
143 144 -490 0
-143 144 490 0
143 -144 490 0
-143 -144 -490 0
145 146 -491 0
-145 146 491 0
145 -146 491 0
-145 -146 -491 0
147 148 -492 0
-147 148 492 0
147 -148 492 0
-147 -148 -492 0
149 150 -493 0
-149 150 493 0
149 -150 493 0
-149 -150 -493 0
151 152 -494 0
-151 152 494 0
151 -152 494 0
-151 -152 -494 0
153 154 -495 0
-153 154 495 0
153 -154 495 0
-153 -154 -495 0
155 156 -496 0
-155 156 496 0
155 -156 496 0
-155 -156 -496 0
157 158 -497 0
-157 158 497 0
157 -158 497 0
-157 -158 -497 0
159 160 -498 0
-159 160 498 0
159 -160 498 0
-159 -160 -498 0
161 162 -499 0
-161 162 499 0
161 -162 499 0
-161 -162 -499 0
163 164 -500 0
-163 164 500 0
163 -164 500 0
-163 -164 -500 0
165 166 -501 0
-165 166 501 0
165 -166 501 0
-165 -166 -501 0
167 168 -502 0
-167 168 502 0
167 -168 502 0
-167 -168 -502 0
169 170 -503 0
-169 170 503 0
169 -170 503 0
-169 -170 -503 0
171 172 -504 0
-171 172 504 0
171 -172 504 0
-171 -172 -504 0
173 174 -505 0
-173 174 505 0
173 -174 505 0
-173 -174 -505 0
175 176 -506 0
-175 176 506 0
175 -176 506 0
-175 -176 -506 0
177 178 -507 0
-177 178 507 0
177 -178 507 0
-177 -178 -507 0
179 180 -508 0
-179 180 508 0
179 -180 508 0
-179 -180 -508 0
181 182 -509 0
-181 182 509 0
181 -182 509 0
-181 -182 -509 0
183 184 -510 0
-183 184 510 0
183 -184 510 0
-183 -184 -510 0
185 186 -511 0
-185 186 511 0
185 -186 511 0
-185 -186 -511 0
187 188 -512 0
-187 188 512 0
187 -188 512 0
-187 -188 -512 0
189 190 -513 0
-189 190 513 0
189 -190 513 0
-189 -190 -513 0
191 192 -514 0
-191 192 514 0
191 -192 514 0
-191 -192 -514 0
193 194 -515 0
-193 194 515 0
193 -194 515 0
-193 -194 -515 0
195 196 -516 0
-195 196 516 0
195 -196 516 0
-195 -196 -516 0
197 198 -517 0
-197 198 517 0
197 -198 517 0
-197 -198 -517 0
199 200 -518 0
-199 200 518 0
199 -200 518 0
-199 -200 -518 0
201 202 -519 0
-201 202 519 0
201 -202 519 0
-201 -202 -519 0
203 204 -520 0
-203 204 520 0
203 -204 520 0
-203 -204 -520 0
205 206 -521 0
-205 206 521 0
205 -206 521 0
-205 -206 -521 0
207 208 -522 0
-207 208 522 0
207 -208 522 0
-207 -208 -522 0
209 210 -523 0
-209 210 523 0
209 -210 523 0
-209 -210 -523 0
211 212 -524 0
-211 212 524 0
211 -212 524 0
-211 -212 -524 0
213 214 -525 0
-213 214 525 0
213 -214 525 0
-213 -214 -525 0
215 216 -526 0
-215 216 526 0
215 -216 526 0
-215 -216 -526 0
217 218 -527 0
-217 218 527 0
217 -218 527 0
-217 -218 -527 0
219 220 -528 0
-219 220 528 0
219 -220 528 0
-219 -220 -528 0
221 222 -529 0
-221 222 529 0
221 -222 529 0
-221 -222 -529 0
223 224 -530 0
-223 224 530 0
223 -224 530 0
-223 -224 -530 0
225 226 -531 0
-225 226 531 0
225 -226 531 0
-225 -226 -531 0
227 228 -532 0
-227 228 532 0
227 -228 532 0
-227 -228 -532 0
229 230 -533 0
-229 230 533 0
229 -230 533 0
-229 -230 -533 0
231 232 -534 0
-231 232 534 0
231 -232 534 0
-231 -232 -534 0
233 234 -535 0
-233 234 535 0
233 -234 535 0
-233 -234 -535 0
235 236 -536 0
-235 236 536 0
235 -236 536 0
-235 -236 -536 0
237 238 -537 0
-237 238 537 0
237 -238 537 0
-237 -238 -537 0
239 240 -538 0
-239 240 538 0
239 -240 538 0
-239 -240 -538 0
241 242 -539 0
-241 242 539 0
241 -242 539 0
-241 -242 -539 0
243 244 -540 0
-243 244 540 0
243 -244 540 0
-243 -244 -540 0
245 246 -541 0
-245 246 541 0
245 -246 541 0
-245 -246 -541 0
247 248 -542 0
-247 248 542 0
247 -248 542 0
-247 -248 -542 0
249 250 -543 0
-249 250 543 0
249 -250 543 0
-249 -250 -543 0
251 252 -544 0
-251 252 544 0
251 -252 544 0
-251 -252 -544 0
253 254 -545 0
-253 254 545 0
253 -254 545 0
-253 -254 -545 0
255 256 -546 0
-255 256 546 0
255 -256 546 0
-255 -256 -546 0
257 258 -547 0
-257 258 547 0
257 -258 547 0
-257 -258 -547 0
259 260 -548 0
-259 260 548 0
259 -260 548 0
-259 -260 -548 0
261 262 -549 0
-261 262 549 0
261 -262 549 0
-261 -262 -549 0
263 264 -550 0
-263 264 550 0
263 -264 550 0
-263 -264 -550 0
265 266 -551 0
-265 266 551 0
265 -266 551 0
-265 -266 -551 0
267 268 -552 0
-267 268 552 0
267 -268 552 0
-267 -268 -552 0
269 270 -553 0
-269 270 553 0
269 -270 553 0
-269 -270 -553 0
271 272 -554 0
-271 272 554 0
271 -272 554 0
-271 -272 -554 0
273 274 -555 0
-273 274 555 0
273 -274 555 0
-273 -274 -555 0
275 276 -556 0
-275 276 556 0
275 -276 556 0
-275 -276 -556 0
277 278 -557 0
-277 278 557 0
277 -278 557 0
-277 -278 -557 0
279 280 -558 0
-279 280 558 0
279 -280 558 0
-279 -280 -558 0
281 282 -559 0
-281 282 559 0
281 -282 559 0
-281 -282 -559 0
283 284 -560 0
-283 284 560 0
283 -284 560 0
-283 -284 -560 0
285 286 -561 0
-285 286 561 0
285 -286 561 0
-285 -286 -561 0
287 288 -562 0
-287 288 562 0
287 -288 562 0
-287 -288 -562 0
289 290 -563 0
-289 290 563 0
289 -290 563 0
-289 -290 -563 0
291 292 -564 0
-291 292 564 0
291 -292 564 0
-291 -292 -564 0
293 294 -565 0
-293 294 565 0
293 -294 565 0
-293 -294 -565 0
295 296 -566 0
-295 296 566 0
295 -296 566 0
-295 -296 -566 0
297 298 -567 0
-297 298 567 0
297 -298 567 0
-297 -298 -567 0
299 300 -568 0
-299 300 568 0
299 -300 568 0
-299 -300 -568 0
301 302 -569 0
-301 302 569 0
301 -302 569 0
-301 -302 -569 0
303 304 -570 0
-303 304 570 0
303 -304 570 0
-303 -304 -570 0
305 306 -571 0
-305 306 571 0
305 -306 571 0
-305 -306 -571 0
307 308 -572 0
-307 308 572 0
307 -308 572 0
-307 -308 -572 0
309 310 -573 0
-309 310 573 0
309 -310 573 0
-309 -310 -573 0
311 312 -574 0
-311 312 574 0
311 -312 574 0
-311 -312 -574 0
313 314 -575 0
-313 314 575 0
313 -314 575 0
-313 -314 -575 0
315 316 -576 0
-315 316 576 0
315 -316 576 0
-315 -316 -576 0
317 318 -577 0
-317 318 577 0
317 -318 577 0
-317 -318 -577 0
319 320 -578 0
-319 320 578 0
319 -320 578 0
-319 -320 -578 0
321 322 -579 0
-321 322 579 0
321 -322 579 0
-321 -322 -579 0
323 324 -580 0
-323 324 580 0
323 -324 580 0
-323 -324 -580 0
325 326 -581 0
-325 326 581 0
325 -326 581 0
-325 -326 -581 0
327 328 -582 0
-327 328 582 0
327 -328 582 0
-327 -328 -582 0
329 330 -583 0
-329 330 583 0
329 -330 583 0
-329 -330 -583 0
331 332 -584 0
-331 332 584 0
331 -332 584 0
-331 -332 -584 0
333 334 -585 0
-333 334 585 0
333 -334 585 0
-333 -334 -585 0
335 336 -586 0
-335 336 586 0
335 -336 586 0
-335 -336 -586 0
337 338 -587 0
-337 338 587 0
337 -338 587 0
-337 -338 -587 0
339 340 -588 0
-339 340 588 0
339 -340 588 0
-339 -340 -588 0
341 342 -589 0
-341 342 589 0
341 -342 589 0
-341 -342 -589 0
343 344 -590 0
-343 344 590 0
343 -344 590 0
-343 -344 -590 0
345 346 -591 0
-345 346 591 0
345 -346 591 0
-345 -346 -591 0
347 348 -592 0
-347 348 592 0
347 -348 592 0
-347 -348 -592 0
349 350 -593 0
-349 350 593 0
349 -350 593 0
-349 -350 -593 0
351 352 -594 0
-351 352 594 0
351 -352 594 0
-351 -352 -594 0
353 354 -595 0
-353 354 595 0
353 -354 595 0
-353 -354 -595 0
355 356 -596 0
-355 356 596 0
355 -356 596 0
-355 -356 -596 0
357 358 -597 0
-357 358 597 0
357 -358 597 0
-357 -358 -597 0
359 360 -598 0
-359 360 598 0
359 -360 598 0
-359 -360 -598 0
361 362 -599 0
-361 362 599 0
361 -362 599 0
-361 -362 -599 0
363 364 -600 0
-363 364 600 0
363 -364 600 0
-363 -364 -600 0
365 366 -601 0
-365 366 601 0
365 -366 601 0
-365 -366 -601 0
367 368 -602 0
-367 368 602 0
367 -368 602 0
-367 -368 -602 0
369 370 -603 0
-369 370 603 0
369 -370 603 0
-369 -370 -603 0
371 372 -604 0
-371 372 604 0
371 -372 604 0
-371 -372 -604 0
373 374 -605 0
-373 374 605 0
373 -374 605 0
-373 -374 -605 0
375 376 -606 0
-375 376 606 0
375 -376 606 0
-375 -376 -606 0
377 378 -607 0
-377 378 607 0
377 -378 607 0
-377 -378 -607 0
379 380 -608 0
-379 380 608 0
379 -380 608 0
-379 -380 -608 0
381 382 -609 0
-381 382 609 0
381 -382 609 0
-381 -382 -609 0
383 384 -610 0
-383 384 610 0
383 -384 610 0
-383 -384 -610 0
385 386 -611 0
-385 386 611 0
385 -386 611 0
-385 -386 -611 0
387 388 -612 0
-387 388 612 0
387 -388 612 0
-387 -388 -612 0
389 390 -613 0
-389 390 613 0
389 -390 613 0
-389 -390 -613 0
391 392 -614 0
-391 392 614 0
391 -392 614 0
-391 -392 -614 0
393 394 -615 0
-393 394 615 0
393 -394 615 0
-393 -394 -615 0
395 396 -616 0
-395 396 616 0
395 -396 616 0
-395 -396 -616 0
397 398 -617 0
-397 398 617 0
397 -398 617 0
-397 -398 -617 0
399 400 -618 0
-399 400 618 0
399 -400 618 0
-399 -400 -618 0
401 402 -619 0
-401 402 619 0
401 -402 619 0
-401 -402 -619 0
403 404 -620 0
-403 404 620 0
403 -404 620 0
-403 -404 -620 0
405 406 -621 0
-405 406 621 0
405 -406 621 0
-405 -406 -621 0
407 408 -622 0
-407 408 622 0
407 -408 622 0
-407 -408 -622 0
409 410 -623 0
-409 410 623 0
409 -410 623 0
-409 -410 -623 0
411 412 -624 0
-411 412 624 0
411 -412 624 0
-411 -412 -624 0
413 414 -625 0
-413 414 625 0
413 -414 625 0
-413 -414 -625 0
419 420 -626 0
-419 420 626 0
419 -420 626 0
-419 -420 -626 0
421 422 -627 0
-421 422 627 0
421 -422 627 0
-421 -422 -627 0
423 424 -628 0
-423 424 628 0
423 -424 628 0
-423 -424 -628 0
425 426 -629 0
-425 426 629 0
425 -426 629 0
-425 -426 -629 0
427 428 -630 0
-427 428 630 0
427 -428 630 0
-427 -428 -630 0
429 430 -631 0
-429 430 631 0
429 -430 631 0
-429 -430 -631 0
431 432 -632 0
-431 432 632 0
431 -432 632 0
-431 -432 -632 0
433 434 -633 0
-433 434 633 0
433 -434 633 0
-433 -434 -633 0
435 436 -634 0
-435 436 634 0
435 -436 634 0
-435 -436 -634 0
437 438 -635 0
-437 438 635 0
437 -438 635 0
-437 -438 -635 0
439 440 -636 0
-439 440 636 0
439 -440 636 0
-439 -440 -636 0
441 442 -637 0
-441 442 637 0
441 -442 637 0
-441 -442 -637 0
443 444 -638 0
-443 444 638 0
443 -444 638 0
-443 -444 -638 0
445 446 -639 0
-445 446 639 0
445 -446 639 0
-445 -446 -639 0
447 448 -640 0
-447 448 640 0
447 -448 640 0
-447 -448 -640 0
449 450 -641 0
-449 450 641 0
449 -450 641 0
-449 -450 -641 0
451 452 -642 0
-451 452 642 0
451 -452 642 0
-451 -452 -642 0
453 454 -643 0
-453 454 643 0
453 -454 643 0
-453 -454 -643 0
455 456 -644 0
-455 456 644 0
455 -456 644 0
-455 -456 -644 0
457 458 -645 0
-457 458 645 0
457 -458 645 0
-457 -458 -645 0
459 460 -646 0
-459 460 646 0
459 -460 646 0
-459 -460 -646 0
461 462 -647 0
-461 462 647 0
461 -462 647 0
-461 -462 -647 0
463 464 -648 0
-463 464 648 0
463 -464 648 0
-463 -464 -648 0
465 466 -649 0
-465 466 649 0
465 -466 649 0
-465 -466 -649 0
467 468 -650 0
-467 468 650 0
467 -468 650 0
-467 -468 -650 0
469 470 -651 0
-469 470 651 0
469 -470 651 0
-469 -470 -651 0
471 472 -652 0
-471 472 652 0
471 -472 652 0
-471 -472 -652 0
473 474 -653 0
-473 474 653 0
473 -474 653 0
-473 -474 -653 0
475 476 -654 0
-475 476 654 0
475 -476 654 0
-475 -476 -654 0
477 478 -655 0
-477 478 655 0
477 -478 655 0
-477 -478 -655 0
479 480 -656 0
-479 480 656 0
479 -480 656 0
-479 -480 -656 0
481 482 -657 0
-481 482 657 0
481 -482 657 0
-481 -482 -657 0
483 484 -658 0
-483 484 658 0
483 -484 658 0
-483 -484 -658 0
485 486 -659 0
-485 486 659 0
485 -486 659 0
-485 -486 -659 0
487 488 -660 0
-487 488 660 0
487 -488 660 0
-487 -488 -660 0
489 490 -661 0
-489 490 661 0
489 -490 661 0
-489 -490 -661 0
491 492 -662 0
-491 492 662 0
491 -492 662 0
-491 -492 -662 0
493 494 -663 0
-493 494 663 0
493 -494 663 0
-493 -494 -663 0
495 496 -664 0
-495 496 664 0
495 -496 664 0
-495 -496 -664 0
497 498 -665 0
-497 498 665 0
497 -498 665 0
-497 -498 -665 0
499 500 -666 0
-499 500 666 0
499 -500 666 0
-499 -500 -666 0
501 502 -667 0
-501 502 667 0
501 -502 667 0
-501 -502 -667 0
503 504 -668 0
-503 504 668 0
503 -504 668 0
-503 -504 -668 0
505 506 -669 0
-505 506 669 0
505 -506 669 0
-505 -506 -669 0
507 508 -670 0
-507 508 670 0
507 -508 670 0
-507 -508 -670 0
509 510 -671 0
-509 510 671 0
509 -510 671 0
-509 -510 -671 0
511 512 -672 0
-511 512 672 0
511 -512 672 0
-511 -512 -672 0
513 514 -673 0
-513 514 673 0
513 -514 673 0
-513 -514 -673 0
515 516 -674 0
-515 516 674 0
515 -516 674 0
-515 -516 -674 0
517 518 -675 0
-517 518 675 0
517 -518 675 0
-517 -518 -675 0
519 520 -676 0
-519 520 676 0
519 -520 676 0
-519 -520 -676 0
521 522 -677 0
-521 522 677 0
521 -522 677 0
-521 -522 -677 0
523 524 -678 0
-523 524 678 0
523 -524 678 0
-523 -524 -678 0
525 526 -679 0
-525 526 679 0
525 -526 679 0
-525 -526 -679 0
527 528 -680 0
-527 528 680 0
527 -528 680 0
-527 -528 -680 0
529 530 -681 0
-529 530 681 0
529 -530 681 0
-529 -530 -681 0
531 532 -682 0
-531 532 682 0
531 -532 682 0
-531 -532 -682 0
533 534 -683 0
-533 534 683 0
533 -534 683 0
-533 -534 -683 0
535 536 -684 0
-535 536 684 0
535 -536 684 0
-535 -536 -684 0
537 538 -685 0
-537 538 685 0
537 -538 685 0
-537 -538 -685 0
539 540 -686 0
-539 540 686 0
539 -540 686 0
-539 -540 -686 0
541 542 -687 0
-541 542 687 0
541 -542 687 0
-541 -542 -687 0
543 544 -688 0
-543 544 688 0
543 -544 688 0
-543 -544 -688 0
545 546 -689 0
-545 546 689 0
545 -546 689 0
-545 -546 -689 0
547 548 -690 0
-547 548 690 0
547 -548 690 0
-547 -548 -690 0
549 550 -691 0
-549 550 691 0
549 -550 691 0
-549 -550 -691 0
551 552 -692 0
-551 552 692 0
551 -552 692 0
-551 -552 -692 0
553 554 -693 0
-553 554 693 0
553 -554 693 0
-553 -554 -693 0
555 556 -694 0
-555 556 694 0
555 -556 694 0
-555 -556 -694 0
557 558 -695 0
-557 558 695 0
557 -558 695 0
-557 -558 -695 0
559 560 -696 0
-559 560 696 0
559 -560 696 0
-559 -560 -696 0
561 562 -697 0
-561 562 697 0
561 -562 697 0
-561 -562 -697 0
563 564 -698 0
-563 564 698 0
563 -564 698 0
-563 -564 -698 0
565 566 -699 0
-565 566 699 0
565 -566 699 0
-565 -566 -699 0
567 568 -700 0
-567 568 700 0
567 -568 700 0
-567 -568 -700 0
569 570 -701 0
-569 570 701 0
569 -570 701 0
-569 -570 -701 0
571 572 -702 0
-571 572 702 0
571 -572 702 0
-571 -572 -702 0
573 574 -703 0
-573 574 703 0
573 -574 703 0
-573 -574 -703 0
575 576 -704 0
-575 576 704 0
575 -576 704 0
-575 -576 -704 0
577 578 -705 0
-577 578 705 0
577 -578 705 0
-577 -578 -705 0
579 580 -706 0
-579 580 706 0
579 -580 706 0
-579 -580 -706 0
581 582 -707 0
-581 582 707 0
581 -582 707 0
-581 -582 -707 0
583 584 -708 0
-583 584 708 0
583 -584 708 0
-583 -584 -708 0
585 586 -709 0
-585 586 709 0
585 -586 709 0
-585 -586 -709 0
587 588 -710 0
-587 588 710 0
587 -588 710 0
-587 -588 -710 0
589 590 -711 0
-589 590 711 0
589 -590 711 0
-589 -590 -711 0
591 592 -712 0
-591 592 712 0
591 -592 712 0
-591 -592 -712 0
593 594 -713 0
-593 594 713 0
593 -594 713 0
-593 -594 -713 0
595 596 -714 0
-595 596 714 0
595 -596 714 0
-595 -596 -714 0
597 598 -715 0
-597 598 715 0
597 -598 715 0
-597 -598 -715 0
599 600 -716 0
-599 600 716 0
599 -600 716 0
-599 -600 -716 0
601 602 -717 0
-601 602 717 0
601 -602 717 0
-601 -602 -717 0
603 604 -718 0
-603 604 718 0
603 -604 718 0
-603 -604 -718 0
605 606 -719 0
-605 606 719 0
605 -606 719 0
-605 -606 -719 0
607 608 -720 0
-607 608 720 0
607 -608 720 0
-607 -608 -720 0
609 610 -721 0
-609 610 721 0
609 -610 721 0
-609 -610 -721 0
611 612 -722 0
-611 612 722 0
611 -612 722 0
-611 -612 -722 0
613 614 -723 0
-613 614 723 0
613 -614 723 0
-613 -614 -723 0
615 616 -724 0
-615 616 724 0
615 -616 724 0
-615 -616 -724 0
617 618 -725 0
-617 618 725 0
617 -618 725 0
-617 -618 -725 0
619 620 -726 0
-619 620 726 0
619 -620 726 0
-619 -620 -726 0
621 622 -727 0
-621 622 727 0
621 -622 727 0
-621 -622 -727 0
623 624 -728 0
-623 624 728 0
623 -624 728 0
-623 -624 -728 0
625 415 -729 0
-625 415 729 0
625 -415 729 0
-625 -415 -729 0
626 627 -730 0
-626 627 730 0
626 -627 730 0
-626 -627 -730 0
628 629 -731 0
-628 629 731 0
628 -629 731 0
-628 -629 -731 0
630 631 -732 0
-630 631 732 0
630 -631 732 0
-630 -631 -732 0
632 633 -733 0
-632 633 733 0
632 -633 733 0
-632 -633 -733 0
634 635 -734 0
-634 635 734 0
634 -635 734 0
-634 -635 -734 0
636 637 -735 0
-636 637 735 0
636 -637 735 0
-636 -637 -735 0
638 639 -736 0
-638 639 736 0
638 -639 736 0
-638 -639 -736 0
640 641 -737 0
-640 641 737 0
640 -641 737 0
-640 -641 -737 0
642 643 -738 0
-642 643 738 0
642 -643 738 0
-642 -643 -738 0
644 645 -739 0
-644 645 739 0
644 -645 739 0
-644 -645 -739 0
646 647 -740 0
-646 647 740 0
646 -647 740 0
-646 -647 -740 0
648 649 -741 0
-648 649 741 0
648 -649 741 0
-648 -649 -741 0
650 651 -742 0
-650 651 742 0
650 -651 742 0
-650 -651 -742 0
652 653 -743 0
-652 653 743 0
652 -653 743 0
-652 -653 -743 0
654 655 -744 0
-654 655 744 0
654 -655 744 0
-654 -655 -744 0
656 657 -745 0
-656 657 745 0
656 -657 745 0
-656 -657 -745 0
658 659 -746 0
-658 659 746 0
658 -659 746 0
-658 -659 -746 0
660 661 -747 0
-660 661 747 0
660 -661 747 0
-660 -661 -747 0
662 663 -748 0
-662 663 748 0
662 -663 748 0
-662 -663 -748 0
664 665 -749 0
-664 665 749 0
664 -665 749 0
-664 -665 -749 0
666 667 -750 0
-666 667 750 0
666 -667 750 0
-666 -667 -750 0
668 669 -751 0
-668 669 751 0
668 -669 751 0
-668 -669 -751 0
670 671 -752 0
-670 671 752 0
670 -671 752 0
-670 -671 -752 0
672 673 -753 0
-672 673 753 0
672 -673 753 0
-672 -673 -753 0
674 675 -754 0
-674 675 754 0
674 -675 754 0
-674 -675 -754 0
676 677 -755 0
-676 677 755 0
676 -677 755 0
-676 -677 -755 0
678 679 -756 0
-678 679 756 0
678 -679 756 0
-678 -679 -756 0
680 681 -757 0
-680 681 757 0
680 -681 757 0
-680 -681 -757 0
682 683 -758 0
-682 683 758 0
682 -683 758 0
-682 -683 -758 0
684 685 -759 0
-684 685 759 0
684 -685 759 0
-684 -685 -759 0
686 687 -760 0
-686 687 760 0
686 -687 760 0
-686 -687 -760 0
688 689 -761 0
-688 689 761 0
688 -689 761 0
-688 -689 -761 0
690 691 -762 0
-690 691 762 0
690 -691 762 0
-690 -691 -762 0
692 693 -763 0
-692 693 763 0
692 -693 763 0
-692 -693 -763 0
694 695 -764 0
-694 695 764 0
694 -695 764 0
-694 -695 -764 0
696 697 -765 0
-696 697 765 0
696 -697 765 0
-696 -697 -765 0
698 699 -766 0
-698 699 766 0
698 -699 766 0
-698 -699 -766 0
700 701 -767 0
-700 701 767 0
700 -701 767 0
-700 -701 -767 0
702 703 -768 0
-702 703 768 0
702 -703 768 0
-702 -703 -768 0
704 705 -769 0
-704 705 769 0
704 -705 769 0
-704 -705 -769 0
706 707 -770 0
-706 707 770 0
706 -707 770 0
-706 -707 -770 0
708 709 -771 0
-708 709 771 0
708 -709 771 0
-708 -709 -771 0
710 711 -772 0
-710 711 772 0
710 -711 772 0
-710 -711 -772 0
712 713 -773 0
-712 713 773 0
712 -713 773 0
-712 -713 -773 0
714 715 -774 0
-714 715 774 0
714 -715 774 0
-714 -715 -774 0
716 717 -775 0
-716 717 775 0
716 -717 775 0
-716 -717 -775 0
718 719 -776 0
-718 719 776 0
718 -719 776 0
-718 -719 -776 0
720 721 -777 0
-720 721 777 0
720 -721 777 0
-720 -721 -777 0
722 723 -778 0
-722 723 778 0
722 -723 778 0
-722 -723 -778 0
724 725 -779 0
-724 725 779 0
724 -725 779 0
-724 -725 -779 0
726 727 -780 0
-726 727 780 0
726 -727 780 0
-726 -727 -780 0
728 729 -781 0
-728 729 781 0
728 -729 781 0
-728 -729 -781 0
730 731 -782 0
-730 731 782 0
730 -731 782 0
-730 -731 -782 0
732 733 -783 0
-732 733 783 0
732 -733 783 0
-732 -733 -783 0
734 735 -784 0
-734 735 784 0
734 -735 784 0
-734 -735 -784 0
736 737 -785 0
-736 737 785 0
736 -737 785 0
-736 -737 -785 0
738 739 -786 0
-738 739 786 0
738 -739 786 0
-738 -739 -786 0
740 741 -787 0
-740 741 787 0
740 -741 787 0
-740 -741 -787 0
742 743 -788 0
-742 743 788 0
742 -743 788 0
-742 -743 -788 0
744 745 -789 0
-744 745 789 0
744 -745 789 0
-744 -745 -789 0
746 747 -790 0
-746 747 790 0
746 -747 790 0
-746 -747 -790 0
748 749 -791 0
-748 749 791 0
748 -749 791 0
-748 -749 -791 0
750 751 -792 0
-750 751 792 0
750 -751 792 0
-750 -751 -792 0
752 753 -793 0
-752 753 793 0
752 -753 793 0
-752 -753 -793 0
754 755 -794 0
-754 755 794 0
754 -755 794 0
-754 -755 -794 0
756 757 -795 0
-756 757 795 0
756 -757 795 0
-756 -757 -795 0
758 759 -796 0
-758 759 796 0
758 -759 796 0
-758 -759 -796 0
760 761 -797 0
-760 761 797 0
760 -761 797 0
-760 -761 -797 0
762 763 -798 0
-762 763 798 0
762 -763 798 0
-762 -763 -798 0
764 765 -799 0
-764 765 799 0
764 -765 799 0
-764 -765 -799 0
766 767 -800 0
-766 767 800 0
766 -767 800 0
-766 -767 -800 0
768 769 -801 0
-768 769 801 0
768 -769 801 0
-768 -769 -801 0
770 771 -802 0
-770 771 802 0
770 -771 802 0
-770 -771 -802 0
772 773 -803 0
-772 773 803 0
772 -773 803 0
-772 -773 -803 0
774 775 -804 0
-774 775 804 0
774 -775 804 0
-774 -775 -804 0
776 777 -805 0
-776 777 805 0
776 -777 805 0
-776 -777 -805 0
778 779 -806 0
-778 779 806 0
778 -779 806 0
-778 -779 -806 0
780 781 -807 0
-780 781 807 0
780 -781 807 0
-780 -781 -807 0
782 783 -808 0
-782 783 808 0
782 -783 808 0
-782 -783 -808 0
784 785 -809 0
-784 785 809 0
784 -785 809 0
-784 -785 -809 0
786 787 -810 0
-786 787 810 0
786 -787 810 0
-786 -787 -810 0
788 789 -811 0
-788 789 811 0
788 -789 811 0
-788 -789 -811 0
790 791 -812 0
-790 791 812 0
790 -791 812 0
-790 -791 -812 0
792 793 -813 0
-792 793 813 0
792 -793 813 0
-792 -793 -813 0
794 795 -814 0
-794 795 814 0
794 -795 814 0
-794 -795 -814 0
796 797 -815 0
-796 797 815 0
796 -797 815 0
-796 -797 -815 0
798 799 -816 0
-798 799 816 0
798 -799 816 0
-798 -799 -816 0
800 801 -817 0
-800 801 817 0
800 -801 817 0
-800 -801 -817 0
802 803 -818 0
-802 803 818 0
802 -803 818 0
-802 -803 -818 0
804 805 -819 0
-804 805 819 0
804 -805 819 0
-804 -805 -819 0
806 807 -820 0
-806 807 820 0
806 -807 820 0
-806 -807 -820 0
808 809 -821 0
-808 809 821 0
808 -809 821 0
-808 -809 -821 0
810 811 -822 0
-810 811 822 0
810 -811 822 0
-810 -811 -822 0
812 813 -823 0
-812 813 823 0
812 -813 823 0
-812 -813 -823 0
814 815 -824 0
-814 815 824 0
814 -815 824 0
-814 -815 -824 0
816 817 -825 0
-816 817 825 0
816 -817 825 0
-816 -817 -825 0
818 819 -826 0
-818 819 826 0
818 -819 826 0
-818 -819 -826 0
821 822 -827 0
-821 822 827 0
821 -822 827 0
-821 -822 -827 0
823 824 -828 0
-823 824 828 0
823 -824 828 0
-823 -824 -828 0
825 826 -829 0
-825 826 829 0
825 -826 829 0
-825 -826 -829 0
827 828 -830 0
-827 828 830 0
827 -828 830 0
-827 -828 -830 0
829 820 -831 0
-829 820 831 0
829 -820 831 0
-829 -820 -831 0
830 831 -416 0
-830 831 416 0
830 -831 416 0
-830 -831 -416 0
